
List of user-set options:

                                    Name   Value                used
                    constr_mult_init_max = 1e+08                 yes
                linear_scaling_on_demand = no                    yes
                           linear_solver = ma86                  yes
                   linear_system_scaling = mc19                  yes
                                max_iter = 500                   yes
                                 mu_init = 1e-06                 yes
                             output_file = ./tmp/ipopt_output_tmp.output  yes
                      print_user_options = yes                   yes
                   warm_start_bound_push = 1e-20                 yes
                   warm_start_init_point = yes                   yes
              warm_start_mult_bound_push = 1e-20                 yes

******************************************************************************
This program contains Ipopt, a library for large-scale nonlinear optimization.
 Ipopt is released as open source code under the Eclipse Public License (EPL).
         For more information visit http://projects.coin-or.org/Ipopt
******************************************************************************

This is Ipopt version 3.12.8, running with linear solver ma86.

Number of nonzeros in equality constraint Jacobian...:   117000
Number of nonzeros in inequality constraint Jacobian.:      213
Number of nonzeros in Lagrangian Hessian.............:   109961

Total number of variables............................:    29941
                     variables with only lower bounds:    11312
                variables with lower and upper bounds:    15102
                     variables with only upper bounds:        0
Total number of equality constraints.................:    29862
Total number of inequality constraints...............:       25
        inequality constraints with only lower bounds:        4
   inequality constraints with lower and upper bounds:        0
        inequality constraints with only upper bounds:       21

iter    objective    inf_pr   inf_du lg(mu)  ||d||  lg(rg) alpha_du alpha_pr  ls
   0 -1.0697831e-01 7.15e-03 1.73e-03  -6.0 0.00e+00    -  0.00e+00 0.00e+00   0
   1 -1.0717219e-01 1.70e+02 6.44e+01  -6.0 2.09e+02    -  1.01e-02 5.30e-01h  1
   2 -1.0715644e-01 1.73e+02 6.34e+01  -6.0 2.29e+04    -  1.03e-02 4.19e-04f  4
   3 -1.0716573e-01 1.07e+02 3.78e+01  -6.0 1.12e+02    -  5.72e-01 2.30e-01H  1
   4 -1.0723506e-01 1.94e+02 1.20e+01  -6.0 1.15e+02    -  6.86e-01 8.06e-01H  1
   5 -1.0730007e-01 1.65e+02 2.89e+01  -6.0 1.04e+02    -  1.00e+00 5.67e-01h  1
   6 -1.0737108e-01 1.54e+02 4.50e+01  -6.0 1.13e+02    -  7.46e-01 4.88e-01h  1
   7 -1.0746155e-01 1.42e+02 1.12e+02  -6.0 1.04e+02    -  1.00e+00 5.99e-01h  1
   8 -1.0758342e-01 1.04e+02 1.21e+02  -6.0 1.04e+02    -  7.26e-01 5.90e-01H  1
   9 -1.0766983e-01 9.12e+01 3.09e+02  -6.0 9.88e+01    -  6.50e-01 4.47e-01h  1
iter    objective    inf_pr   inf_du lg(mu)  ||d||  lg(rg) alpha_du alpha_pr  ls
  10 -1.0780752e-01 1.02e+02 7.63e+02  -6.0 9.97e+01    -  1.00e+00 6.54e-01h  1
  11 -1.0793328e-01 9.94e+01 1.71e+02  -6.0 1.13e+02    -  4.71e-01 5.22e-01h  1
  12 -1.0815429e-01 1.95e+02 2.30e+03  -6.0 1.34e+02    -  1.00e+00 7.55e-01h  1
  13 -1.0818824e-01 1.91e+02 4.56e+03  -6.0 2.77e+02    -  1.74e-01 6.20e-02h  1
  14 -1.0823066e-01 1.70e+02 4.59e+06  -6.0 1.57e+03    -  4.67e-04 1.18e-01h  2
  15 -1.0836285e-01 6.74e+01 5.60e+02  -6.0 2.11e+02    -  3.93e-02 1.00e+00h  1
  16 -1.0825195e-01 2.47e+00 5.63e-02  -6.0 4.24e+01    -  1.00e+00 1.00e+00h  1
  17 -1.0840394e-01 2.12e+02 1.64e+00  -6.0 1.28e+02    -  5.83e-01 6.62e-01h  1
  18 -1.0832552e-01 4.92e+01 1.96e-02  -6.0 4.33e+01    -  1.00e+00 1.00e+00h  1
  19 -1.0844781e-01 2.34e+02 1.42e-01  -6.0 9.93e+01    -  9.40e-01 9.23e-01h  1
iter    objective    inf_pr   inf_du lg(mu)  ||d||  lg(rg) alpha_du alpha_pr  ls
  20 -1.0851774e-01 2.29e+02 6.16e-02  -6.0 9.53e+01    -  1.00e+00 1.00e+00h  1
  21 -1.0856292e-01 1.85e+02 6.47e-01  -6.0 1.15e+02    -  5.08e-01 5.21e-01h  1
  22 -1.0864288e-01 1.77e+02 6.86e-02  -6.0 9.75e+01    -  1.00e+00 1.00e+00h  1
  23 -1.0867722e-01 1.74e+02 9.81e+01  -6.0 2.90e+02    -  3.32e-01 1.12e-01H  1
  24 -1.0879560e-01 1.55e+02 9.88e-02  -6.0 1.03e+02    -  1.00e+00 1.00e+00h  1
  25 -1.0884646e-01 1.23e+02 1.09e+02  -6.0 1.12e+02    -  4.03e-01 3.08e-01h  1
  26 -1.0899928e-01 1.24e+02 1.12e-01  -6.0 9.68e+01    -  1.00e+00 1.00e+00h  1
  27 -1.0907277e-01 1.05e+02 7.31e+01  -6.0 1.09e+02    -  3.35e-01 3.49e-01h  1
  28 -1.0921434e-01 1.41e+02 3.70e+03  -6.0 1.13e+02    -  1.00e+00 6.06e-01h  1
  29 -1.0925504e-01 3.20e+01 1.05e+06  -6.0 5.19e+01    -  1.30e-02 1.00e+00h  1
iter    objective    inf_pr   inf_du lg(mu)  ||d||  lg(rg) alpha_du alpha_pr  ls
  30 -1.0925951e-01 1.23e+00 1.37e-01  -6.0 4.74e+01    -  1.00e+00 1.00e+00h  1
  31 -1.0934812e-01 1.17e+02 4.99e-02  -6.0 3.60e+01    -  1.00e+00 1.00e+00h  1
  32 -1.0932220e-01 1.16e+00 2.33e-03  -6.0 1.37e+01    -  1.00e+00 1.00e+00h  1
  33 -1.0932333e-01 5.12e-02 2.71e-05  -6.0 2.17e+00    -  1.00e+00 1.00e+00h  1
  34 -1.0932332e-01 3.15e-08 9.41e-10  -6.0 9.99e-03    -  1.00e+00 1.00e+00h  1
  35 -1.0962967e-01 2.27e+02 1.18e+02  -9.0 1.94e+02    -  4.69e-01 8.67e-01f  1
  36 -1.0957207e-01 1.46e+02 1.45e+02  -9.0 9.19e+01    -  1.55e-02 7.32e-01h  1
  37 -1.0955946e-01 9.14e+01 3.26e+01  -9.0 5.15e+01    -  7.47e-01 3.80e-01h  1
  38 -1.0953880e-01 3.94e+00 2.50e+01  -9.0 4.58e+01    -  3.73e-01 9.85e-01h  1
  39 -1.0953733e-01 1.95e-01 8.66e-01  -9.0 1.26e+01    -  9.66e-01 1.00e+00h  1
iter    objective    inf_pr   inf_du lg(mu)  ||d||  lg(rg) alpha_du alpha_pr  ls
  40 -1.0953727e-01 5.23e-05 2.20e-05  -9.0 1.49e+00    -  1.00e+00 1.00e+00h  1
  41 -1.0953727e-01 1.76e-08 1.04e-09  -9.0 1.43e-02    -  1.00e+00 1.00e+00h  1

Number of Iterations....: 41

                                   (scaled)                 (unscaled)
Objective...............:  -1.0953726663313990e-01   -1.0953726663313990e-01
Dual infeasibility......:   1.0366408703665897e-09    1.0366408703665897e-09
Constraint violation....:   3.9133840846973076e-09    1.7578713595867157e-08
Complementarity.........:   1.0213113539857070e-09    1.0213113539857070e-09
Overall NLP error.......:   3.9133840846973076e-09    1.7578713595867157e-08


Number of objective function evaluations             = 54
Number of objective gradient evaluations             = 42
Number of equality constraint evaluations            = 54
Number of inequality constraint evaluations          = 54
Number of equality constraint Jacobian evaluations   = 42
Number of inequality constraint Jacobian evaluations = 42
Number of Lagrangian Hessian evaluations             = 41
Total CPU secs in IPOPT (w/o function evaluations)   =    339.825
Total CPU secs in NLP function evaluations           =      3.980

EXIT: Optimal Solution Found.
